\* Maximise points kept *\
Maximize
OBJ: 142_STABLE_CAFE + 156_THE_SLANTED_DOOR + 158_TILDEN_REGIONAL_PARK
 + 26_BLUE_BOTTLE_COFFEE + 31_BROWN_SUGAR_KITCHEN + 38_CHEESE_BOARD_PIZZA
Subject To
_C1: 142_STABLE_CAFE + 156_THE_SLANTED_DOOR + 158_TILDEN_REGIONAL_PARK
 + 26_BLUE_BOTTLE_COFFEE + 31_BROWN_SUGAR_KITCHEN + 38_CHEESE_BOARD_PIZZA <= 5
Binaries
142_STABLE_CAFE
156_THE_SLANTED_DOOR
158_TILDEN_REGIONAL_PARK
26_BLUE_BOTTLE_COFFEE
31_BROWN_SUGAR_KITCHEN
38_CHEESE_BOARD_PIZZA
End
